21
10 1 14 2 0 8 18 17 3 17 13 4 6 19 10 18 9 2 11 8 20 11 8 18 20 12 1 20 4 6 14 4 19 9 7 15 16 2 18 3 15 1 15 11 13 11 15 6 10 8 10 5 12 19 16 13 14 12 5 12 20 15 3 8 0 7 17 2 5 19 0 7 3 1 5 19 13 2 12 17 11 18 9 2 5 8 7 4 14 0 14 16 16 5 6 14 9 10 5 19 